
(set-option :produce-models true)
(set-option :inline-size-limit 10000)

(declare-const var0 String)

(push 1)
(assert (str.in.re var0 (re.* (re.range "\x01" "\xff"))))
(assert (str.in.re var0 (re.++ (re.++ (re.++ (re.*? re.allchar) (str.to.re "~")) (re.++ (re.range "A" "Z") (re.++ (re.+ (re.range "a" "z")) (re.++ ((_ re.capture 1) (re.union (re.union (re.union (re.union (re.union (re.union (re.union (re.union (re.union (re.union (re.union (re.union (re.union (re.union (str.to.re "b") (re.++ (str.to.re "c") (str.to.re "h"))) (str.to.re "d")) (str.to.re "g")) (str.to.re "j")) (str.to.re "k")) (str.to.re "l")) (str.to.re "m")) (str.to.re "n")) (str.to.re "p")) (str.to.re "r")) (str.to.re "s")) (str.to.re "t")) (str.to.re "v")) (str.to.re "z"))) ((_ re.capture 2) (re.++ (str.to.re "i") (re.++ (str.to.re "a") (str.to.re "n")))))))) re.end-anchor)))	; match!==null
(assert (not (str.in.re ((_ str.extract 1) var0 (re.++ (re.++ (re.++ (re.*? re.allchar) (str.to.re "~")) (re.++ (re.range "A" "Z") (re.++ (re.+ (re.range "a" "z")) (re.++ ((_ re.capture 1) (re.union (re.union (re.union (re.union (re.union (re.union (re.union (re.union (re.union (re.union (re.union (re.union (re.union (re.union (str.to.re "b") (re.++ (str.to.re "c") (str.to.re "h"))) (str.to.re "d")) (str.to.re "g")) (str.to.re "j")) (str.to.re "k")) (str.to.re "l")) (str.to.re "m")) (str.to.re "n")) (str.to.re "p")) (str.to.re "r")) (str.to.re "s")) (str.to.re "t")) (str.to.re "v")) (str.to.re "z"))) ((_ re.capture 2) (re.++ (str.to.re "i") (re.++ (str.to.re "a") (str.to.re "n")))))))) re.end-anchor)) (str.to.re "\x00"))))
;match[1]!==null
(assert (str.in.re ((_ str.extract 1) var0 (re.++ (re.++ (re.++ (re.*? re.allchar) (str.to.re "~")) (re.++ (re.range "A" "Z") (re.++ (re.+ (re.range "a" "z")) (re.++ ((_ re.capture 1) (re.union (re.union (re.union (re.union (re.union (re.union (re.union (re.union (re.union (re.union (re.union (re.union (re.union (re.union (str.to.re "b") (re.++ (str.to.re "c") (str.to.re "h"))) (str.to.re "d")) (str.to.re "g")) (str.to.re "j")) (str.to.re "k")) (str.to.re "l")) (str.to.re "m")) (str.to.re "n")) (str.to.re "p")) (str.to.re "r")) (str.to.re "s")) (str.to.re "t")) (str.to.re "v")) (str.to.re "z"))) ((_ re.capture 2) (re.++ (str.to.re "i") (re.++ (str.to.re "a") (str.to.re "n")))))))) re.end-anchor)) (re.++ re.all(re.+ (re.range "a" "z")) re.all) ))
;/[a-z]+/.test(match[1]) == true
(check-sat)
(get-model)
(pop 1)
(push 1)
(assert (str.in.re var0 (re.* (re.range "\x01" "\xff"))))
(assert (str.in.re var0 (re.++ (re.++ (re.++ (re.*? re.allchar) (str.to.re "~")) (re.++ (re.range "A" "Z") (re.++ (re.+ (re.range "a" "z")) (re.++ ((_ re.capture 1) (re.union (re.union (re.union (re.union (re.union (re.union (re.union (re.union (re.union (re.union (re.union (re.union (re.union (re.union (str.to.re "b") (re.++ (str.to.re "c") (str.to.re "h"))) (str.to.re "d")) (str.to.re "g")) (str.to.re "j")) (str.to.re "k")) (str.to.re "l")) (str.to.re "m")) (str.to.re "n")) (str.to.re "p")) (str.to.re "r")) (str.to.re "s")) (str.to.re "t")) (str.to.re "v")) (str.to.re "z"))) ((_ re.capture 2) (re.++ (str.to.re "i") (re.++ (str.to.re "a") (str.to.re "n")))))))) re.end-anchor)))	; match!==null
(assert (not (str.in.re ((_ str.extract 1) var0 (re.++ (re.++ (re.++ (re.*? re.allchar) (str.to.re "~")) (re.++ (re.range "A" "Z") (re.++ (re.+ (re.range "a" "z")) (re.++ ((_ re.capture 1) (re.union (re.union (re.union (re.union (re.union (re.union (re.union (re.union (re.union (re.union (re.union (re.union (re.union (re.union (str.to.re "b") (re.++ (str.to.re "c") (str.to.re "h"))) (str.to.re "d")) (str.to.re "g")) (str.to.re "j")) (str.to.re "k")) (str.to.re "l")) (str.to.re "m")) (str.to.re "n")) (str.to.re "p")) (str.to.re "r")) (str.to.re "s")) (str.to.re "t")) (str.to.re "v")) (str.to.re "z"))) ((_ re.capture 2) (re.++ (str.to.re "i") (re.++ (str.to.re "a") (str.to.re "n")))))))) re.end-anchor)) (str.to.re "\x00"))))	
;match[1]!==null
(assert (not (str.in.re ((_ str.extract 1) var0 (re.++ (re.++ (re.++ (re.*? re.allchar) (str.to.re "~")) (re.++ (re.range "A" "Z") (re.++ (re.+ (re.range "a" "z")) (re.++ ((_ re.capture 1) (re.union (re.union (re.union (re.union (re.union (re.union (re.union (re.union (re.union (re.union (re.union (re.union (re.union (re.union (str.to.re "b") (re.++ (str.to.re "c") (str.to.re "h"))) (str.to.re "d")) (str.to.re "g")) (str.to.re "j")) (str.to.re "k")) (str.to.re "l")) (str.to.re "m")) (str.to.re "n")) (str.to.re "p")) (str.to.re "r")) (str.to.re "s")) (str.to.re "t")) (str.to.re "v")) (str.to.re "z"))) ((_ re.capture 2) (re.++ (str.to.re "i") (re.++ (str.to.re "a") (str.to.re "n")))))))) re.end-anchor)) (re.++ re.all(re.+ (re.range "a" "z")) re.all) )))
;/[a-z]+/.test(match[1]) == false	
(check-sat)
(get-model)
(pop 1)
(push 1)
(assert (str.in.re var0 (re.* (re.range "\x01" "\xff"))))
(assert (str.in.re var0 (re.++ (re.++ (re.++ (re.*? re.allchar) (str.to.re "~")) (re.++ (re.range "A" "Z") (re.++ (re.+ (re.range "a" "z")) (re.++ ((_ re.capture 1) (re.union (re.union (re.union (re.union (re.union (re.union (re.union (re.union (re.union (re.union (re.union (re.union (re.union (re.union (str.to.re "b") (re.++ (str.to.re "c") (str.to.re "h"))) (str.to.re "d")) (str.to.re "g")) (str.to.re "j")) (str.to.re "k")) (str.to.re "l")) (str.to.re "m")) (str.to.re "n")) (str.to.re "p")) (str.to.re "r")) (str.to.re "s")) (str.to.re "t")) (str.to.re "v")) (str.to.re "z"))) ((_ re.capture 2) (re.++ (str.to.re "i") (re.++ (str.to.re "a") (str.to.re "n")))))))) re.end-anchor)))	; match!==null
(assert (str.in.re ((_ str.extract 1) var0 (re.++ (re.++ (re.++ (re.*? re.allchar) (str.to.re "~")) (re.++ (re.range "A" "Z") (re.++ (re.+ (re.range "a" "z")) (re.++ ((_ re.capture 1) (re.union (re.union (re.union (re.union (re.union (re.union (re.union (re.union (re.union (re.union (re.union (re.union (re.union (re.union (str.to.re "b") (re.++ (str.to.re "c") (str.to.re "h"))) (str.to.re "d")) (str.to.re "g")) (str.to.re "j")) (str.to.re "k")) (str.to.re "l")) (str.to.re "m")) (str.to.re "n")) (str.to.re "p")) (str.to.re "r")) (str.to.re "s")) (str.to.re "t")) (str.to.re "v")) (str.to.re "z"))) ((_ re.capture 2) (re.++ (str.to.re "i") (re.++ (str.to.re "a") (str.to.re "n")))))))) re.end-anchor)) (str.to.re "\x00")))
;match[1]==null
(check-sat)
(get-model)
(pop 1)
(push 1)
(assert (str.in.re var0 (re.* (re.range "\x01" "\xff"))))
(assert (not (str.in.re var0 (re.++ (re.++ (re.++ (re.*? re.allchar) (str.to.re "~")) (re.++ (re.range "A" "Z") (re.++ (re.+ (re.range "a" "z")) (re.++ ((_ re.capture 1) (re.union (re.union (re.union (re.union (re.union (re.union (re.union (re.union (re.union (re.union (re.union (re.union (re.union (re.union (str.to.re "b") (re.++ (str.to.re "c") (str.to.re "h"))) (str.to.re "d")) (str.to.re "g")) (str.to.re "j")) (str.to.re "k")) (str.to.re "l")) (str.to.re "m")) (str.to.re "n")) (str.to.re "p")) (str.to.re "r")) (str.to.re "s")) (str.to.re "t")) (str.to.re "v")) (str.to.re "z"))) ((_ re.capture 2) (re.++ (str.to.re "i") (re.++ (str.to.re "a") (str.to.re "n")))))))) re.end-anchor))))	; match == null
(check-sat)
(get-model)
(pop 1)
(exit)
